Route #1: 1 15 19 2 17 16 10 6 18 34 54 25 43 53 63 64 14 11 1 
Route #2: 1 60 61 58 59 65 67 69 37 40 68 39 44 21 23 24 55 57 56 32 31 35 3 1 
Route #3: 1 13 12 71 9 20 29 26 30 22 28 27 42 46 45 48 47 50 51 52 38 41 36 33 1 
Route #4: 1 1 62 66 70 49 4 7 8 5 1 

Cost 474.827
Time 0.8890


 * Another infos *

 Iterations: 72 Time: 0.8890 sec - 0.0148 min - 0.0002 horas
0.0000 h 0.0148 min
Problem dimension: 72
